TCS_Benchmarks/redos_fix/snort1_output_distinct_2529_2528_30_0.txt
[^\n\r]*
([^\n\r]*)([tT][sS][aA]\/[^\n\r]*[tT][sS]2\/[^\n\r]*[oO][sS]\/[^\n\r]*[iI][eE]\/[^\n\r]*[cC][dD]\/[^\n\r]*[uU][iI][dD]\/)([^\n\r]*)
[^\n\r]*